
List of user-set options:

                                    Name   Value                used
                           compl_inf_tol = 1                     yes
                         constr_viol_tol = 1                     yes
                            dual_inf_tol = 1000                  yes
                           linear_solver = ma97                  yes
                              ma86_small = 1e-30                  no
                                  ma86_u = 0.0001                 no
                              ma97_order = best                  yes
                              ma97_small = 1e-30                 yes
                            ma97_switch1 = at_start              yes
                            ma97_switch2 = od_hd_reuse           yes
                                  ma97_u = 1e-06                 yes
                               ma97_umax = 0.5                   yes
                                max_iter = 1000                  yes
                    max_refinement_steps = 20                    yes
                    min_refinement_steps = 5                     yes
                                 mu_init = 1e-06                 yes
           mu_superlinear_decrease_power = 1.25                  yes
                   nlp_scaling_min_value = 1e-08                 yes
                        option_file_name = Preset_Case:_817_NCP.opt  yes
                             output_file = ./tmp/Preset_Case:_817_NCP.output  yes
                      print_user_options = yes                   yes
        required_infeasibility_reduction = 1                      no
                                     tol = 1e-08                 yes
                   warm_start_bound_frac = 1e-20                 yes
                   warm_start_bound_push = 1e-20                 yes
                   warm_start_init_point = yes                   yes
              warm_start_mult_bound_push = 1e-20                 yes
                warm_start_mult_init_max = 1e+40                 yes
             warm_start_slack_bound_frac = 1e-20                 yes
             warm_start_slack_bound_push = 1e-20                 yes

******************************************************************************
This program contains Ipopt, a library for large-scale nonlinear optimization.
 Ipopt is released as open source code under the Eclipse Public License (EPL).
         For more information visit http://projects.coin-or.org/Ipopt
******************************************************************************

This is Ipopt version 3.12.10, running with linear solver ma97.

Number of nonzeros in equality constraint Jacobian...:   117167
Number of nonzeros in inequality constraint Jacobian.:      213
Number of nonzeros in Lagrangian Hessian.............:    47513

Total number of variables............................:    29977
                     variables with only lower bounds:    11312
                variables with lower and upper bounds:    15135
                     variables with only upper bounds:        0
Total number of equality constraints.................:    29864
Total number of inequality constraints...............:       25
        inequality constraints with only lower bounds:        4
   inequality constraints with lower and upper bounds:        0
        inequality constraints with only upper bounds:       21

iter    objective    inf_pr   inf_du lg(mu)  ||d||  lg(rg) alpha_du alpha_pr  ls
   0 -1.7336050e-01 2.59e-01 2.00e+00  -6.0 0.00e+00    -  0.00e+00 0.00e+00   0
In iteration 0, 9 Slacks too small, adjusting variable bounds
   1 -1.7336050e-01 2.59e-01 6.19e+02  -6.0 1.05e+10    -  6.18e-14 4.42e-19h  1
   2 -1.7336019e-01 2.59e-01 6.20e+02  -6.0 1.20e+02    -  3.93e-07 7.27e-06f  1
   3 -1.7336017e-01 2.59e-01 6.21e+02  -6.0 6.52e+01    -  1.64e-02 8.17e-07h  2
   4 -1.7335796e-01 2.59e-01 6.21e+02  -6.0 1.24e+02    -  7.14e-04 5.02e-05h  1
   5 -1.7301250e-01 2.55e-01 6.17e+02  -6.0 9.57e+01    -  3.21e-02 1.40e-02h  1
   6 -1.7237235e-01 2.49e-01 5.97e+02  -6.0 9.47e+01    -  1.00e-02 2.62e-02h  1
   7 -1.7158995e-01 2.36e-01 5.69e+02  -6.0 8.76e+01    -  2.68e-02 5.07e-02h  1
   8r-1.7158995e-01 2.36e-01 9.99e+02  -0.6 0.00e+00    -  0.00e+00 2.74e-07R  5
   9r-1.7158806e-01 2.36e-01 2.33e+03  -0.6 1.77e+03    -  4.89e-06 8.27e-07f  1
iter    objective    inf_pr   inf_du lg(mu)  ||d||  lg(rg) alpha_du alpha_pr  ls
  10 -1.7151938e-01 2.35e-01 4.53e+06  -6.0 7.54e+01    -  4.95e-02 3.70e-03h  1
  11 -1.7150228e-01 2.35e-01 1.06e+06  -6.0 6.92e+01    -  3.70e-03 1.08e-03h  1
  12 -1.7113991e-01 2.25e-01 1.02e+06  -6.0 6.02e+01    -  5.23e-03 3.97e-02h  1
  13 -1.7111190e-01 2.24e-01 1.01e+06  -6.0 5.59e+01    -  7.37e-02 4.74e-03h  1
  14 -1.7095805e-01 2.18e-01 9.81e+05  -6.0 5.74e+01    -  9.34e-02 3.05e-02h  3
  15 -1.7078840e-01 2.09e-01 9.41e+05  -6.0 6.10e+01    -  9.83e-02 4.11e-02h  3
  16 -1.7047573e-01 1.99e-01 8.99e+05  -6.0 6.55e+01    -  1.52e-01 4.49e-02h  3
  17 -1.7031429e-01 1.94e-01 8.76e+05  -6.0 7.42e+01    -  1.11e-01 2.52e-02h  4
  18 -1.7003729e-01 1.89e-01 8.53e+05  -6.0 8.68e+01    -  2.89e-01 2.63e-02h  4
  19 -1.6971437e-01 1.86e-01 8.40e+05  -6.0 1.34e+02    -  9.93e-02 1.50e-02h  5
iter    objective    inf_pr   inf_du lg(mu)  ||d||  lg(rg) alpha_du alpha_pr  ls
  20 -1.6928683e-01 1.83e-01 8.26e+05  -6.0 1.50e+02    -  3.45e-01 1.73e-02h  5
  21 -1.6883355e-01 1.81e-01 8.16e+05  -6.0 2.23e+02    -  1.59e-01 1.12e-02h  4
  22 -1.6847776e-01 1.79e-01 8.33e+05  -6.0 2.46e+02    -  2.76e-01 8.26e-03h  4
  23 -1.6817452e-01 1.78e-01 8.28e+05  -6.0 2.88e+02    -  1.53e-02 6.32e-03h  4
  24 -1.6598403e-01 1.70e-01 7.89e+05  -6.0 2.89e+02    -  9.78e-02 4.59e-02w  1
  25 -1.6369224e-01 1.63e-01 7.54e+05  -6.0 3.51e+02    -  8.00e-02 4.12e-02w  1
  26 -1.6120617e-01 1.87e-01 2.64e+06  -6.0 2.40e+02    -  2.48e-01 6.31e-02w  1
  27 -1.6762690e-01 1.76e-01 8.16e+05  -6.0 4.57e+01  -2.0 9.78e-02 1.15e-02h  2
  28 -1.6677008e-01 1.74e-01 8.02e+05  -6.0 3.60e+02    -  4.01e-02 1.48e-02h  3
  29 -1.6639675e-01 1.72e-01 7.91e+05  -6.0 3.12e+02    -  7.72e-02 7.55e-03h  4
iter    objective    inf_pr   inf_du lg(mu)  ||d||  lg(rg) alpha_du alpha_pr  ls
  30 -1.6575258e-01 1.70e-01 7.68e+05  -6.0 3.34e+02    -  1.54e-01 1.22e-02h  3
  31 -1.6514036e-01 1.68e-01 7.59e+05  -6.0 3.07e+02    -  7.66e-02 1.20e-02h  3
  32 -1.6476777e-01 1.67e-01 7.53e+05  -6.0 2.77e+02    -  3.13e-01 7.68e-03h  4
  33 -1.6443280e-01 1.62e-01 8.83e+05  -6.0 4.33e+01  -2.5 6.47e-02 3.19e-02h  3
  34 -1.6399147e-01 1.57e-01 9.68e+05  -6.0 5.23e+01  -3.0 8.88e-02 3.06e-02h  2
  35 -1.6382688e-01 1.52e-01 9.55e+05  -6.0 4.62e+01  -2.5 3.20e-02 2.89e-02h  1
  36 -1.6331940e-01 1.50e-01 1.05e+06  -6.0 4.92e+01  -3.0 8.73e-02 1.73e-02h  2
  37 -1.6320527e-01 1.49e-01 1.04e+06  -6.0 1.28e+02  -3.5 4.75e-02 1.39e-03h  4
  38 -1.6287093e-01 1.48e-01 1.28e+06  -6.0 4.90e+01  -3.1 2.16e-01 1.06e-02h  5
  39 -1.6249191e-01 1.45e-01 1.53e+06  -6.0 4.14e+01  -2.6 9.15e-02 1.82e-02h  5
iter    objective    inf_pr   inf_du lg(mu)  ||d||  lg(rg) alpha_du alpha_pr  ls
  40 -1.6225303e-01 1.44e-01 1.61e+06  -6.0 5.51e+01  -3.1 1.78e-01 5.79e-03h  6
  41 -1.6200427e-01 1.43e-01 2.26e+06  -6.0 4.30e+01  -2.7 2.28e-01 1.02e-02h  6
  42 -1.6189919e-01 1.42e-01 2.20e+06  -6.0 6.25e+01  -3.2 1.68e-01 1.92e-03h  6
  43 -1.6155942e-01 1.41e-01 3.18e+06  -6.0 4.74e+01  -2.7 4.62e-01 1.12e-02h  6
  44 -1.6149329e-01 1.41e-01 3.01e+06  -6.0 8.43e+01  -3.2 1.16e-01 9.02e-04h  6
  45 -1.6124374e-01 1.40e-01 3.61e+06  -6.0 5.84e+01  -2.8 4.88e-01 6.51e-03h  7
  46 -1.5972759e-01 2.22e-01 3.40e+06  -6.0 1.16e+02  -3.3 8.30e-02 1.68e-02w  1
  47 -1.3969375e-01 8.53e+00 1.93e+06  -6.0 6.60e+01  -2.8 5.60e-01 4.54e-01w  1
  48 -1.3959608e-01 8.40e+00 3.55e+06  -6.0 2.54e+01  -2.4 3.71e-01 1.55e-02w  1
  49 -1.6119636e-01 1.40e-01 3.43e+06  -6.0 5.73e+01  -2.9 8.30e-02 5.26e-04h  5
iter    objective    inf_pr   inf_du lg(mu)  ||d||  lg(rg) alpha_du alpha_pr  ls
  50 -1.6113275e-01 1.40e-01 3.21e+06  -6.0 1.82e+02  -3.4 8.44e-02 5.01e-04h  5
  51 -1.6085589e-01 1.39e-01 3.25e+06  -6.0 7.21e+01  -2.9 5.44e-01 5.80e-03h  5
  52 -1.6054174e-01 1.38e-01 3.13e+06  -6.0 2.15e+02  -3.4 5.12e-02 2.54e-03h  3
  53 -1.6035079e-01 1.38e-01 3.17e+06  -6.0 8.13e+01  -3.0 6.17e-01 3.78e-03h  6
  54 -1.6002452e-01 1.38e-01 3.06e+06  -6.0 3.51e+02  -3.5 4.90e-02 2.57e-03h  6
  55 -1.5983461e-01 1.37e-01 3.17e+06  -6.0 9.35e+01  -3.0 6.95e-01 3.59e-03h  8
  56 -1.5463846e-01 1.95e+01 3.10e+06  -6.0 9.92e+02  -3.5 2.21e-02 2.21e-02s 17
  57 -1.5309374e-01 2.03e+01 3.05e+06  -6.0 4.16e+02  -3.1 1.50e-02 1.50e-02s 17
  58r-1.5309374e-01 2.03e+01 1.00e+03   0.8 0.00e+00  -3.6 0.00e+00 0.00e+00R  1
  59r-1.5307675e-01 2.03e+01 1.00e+03   0.8 3.15e+04    -  1.32e-06 4.93e-07f  1
iter    objective    inf_pr   inf_du lg(mu)  ||d||  lg(rg) alpha_du alpha_pr  ls
  60r-1.5279522e-01 2.02e+01 1.19e+03   0.8 8.72e+03    -  1.55e-07 3.32e-06f  1
  61r-1.5289876e-01 2.02e+01 1.19e+03   0.8 7.52e+03    -  4.08e-06 3.46e-06f  1
  62r-1.5307634e-01 2.00e+01 1.17e+03   0.8 6.89e+03    -  2.77e-05 1.03e-05f  1
  63 -1.5295816e-01 1.97e+01 5.45e+02  -6.0 1.37e+03    -  5.84e-02 1.63e-02h  1
  64 -1.5283822e-01 1.90e+01 5.34e+02  -6.0 1.61e+03    -  1.89e-02 3.35e-02h  3
  65 -1.5256464e-01 1.82e+01 4.61e+02  -6.0 1.56e+03    -  1.38e-01 4.38e-02h  1
  66 -1.5229616e-01 1.78e+01 3.96e+02  -6.0 1.52e+03    -  1.41e-01 2.49e-02h  2
  67 -1.5204777e-01 1.74e+01 3.78e+02  -6.0 1.50e+03    -  9.07e-02 2.16e-02h  4
  68 -1.5192838e-01 1.71e+01 4.25e+02  -6.0 1.43e+03    -  5.29e-01 1.67e-02h  6
  69 -1.5227117e-01 1.63e+01 4.06e+02  -6.0 1.52e+03    -  6.41e-02 4.71e-02h  3
iter    objective    inf_pr   inf_du lg(mu)  ||d||  lg(rg) alpha_du alpha_pr  ls
  70 -1.5237084e-01 1.59e+01 4.10e+02  -6.0 1.47e+03    -  1.53e-01 2.10e-02h  4
  71 -1.5254807e-01 1.54e+01 4.37e+02  -6.0 1.34e+03    -  4.99e-01 3.21e-02h  2
  72 -1.5308923e-01 1.50e+01 4.51e+02  -6.0 2.65e+03    -  3.76e-01 2.46e-02h  3
  73 -1.5283751e-01 1.49e+01 4.43e+02  -6.0 4.33e+01  -4.0 2.11e-01 8.28e-03h  4
  74 -1.5277686e-01 1.49e+01 4.56e+02  -6.0 8.05e+01  -4.5 2.00e-01 1.46e-03h  8
  75 -1.5275566e-01 1.49e+01 4.71e+02  -6.0 1.22e+02  -5.0 1.10e-01 4.15e-04h 11
  76 -1.3570556e-01 3.29e+01 4.12e+02  -6.0 1.71e+02  -5.5 7.79e-02 3.35e-01w  1
  77 -1.3397956e-01 3.15e+01 4.04e+02  -6.0 1.12e+02  -5.1 1.28e-04 4.31e-02w  1
  78 -1.3390448e-01 3.15e+01 4.32e+02  -6.0 1.61e+02  -5.5 2.99e-01 1.92e-03w  1
  79 -1.5274733e-01 1.49e+01 4.83e+02  -6.0 2.61e+02  -6.0 7.79e-02 1.64e-04h 11
iter    objective    inf_pr   inf_du lg(mu)  ||d||  lg(rg) alpha_du alpha_pr  ls
  80 -1.4658535e-01 1.08e+01 3.08e+02  -6.0 3.20e+02  -6.5 4.71e-02 2.71e-01H  1
  81 -1.4858931e-01 9.98e+00 2.98e+02  -6.0 5.59e+02  -7.0 2.12e-01 7.92e-02h  2
  82 -1.3909514e-01 6.34e+00 2.03e+02  -6.0 4.91e+01  -4.7 4.45e-01 3.72e-01h  1
  83 -1.3909995e-01 6.34e+00 2.02e+02  -6.0 5.58e+01  -5.2 1.87e-01 2.51e-04h  1
  84 -1.4290900e-01 5.87e+00 1.87e+02  -6.0 1.70e+02  -5.7 1.21e-01 7.39e-02h  1
  85 -1.4211176e-01 4.04e+00 1.26e+02  -6.0 2.34e+02  -6.2 2.19e-01 3.15e-01h  1
  86 -1.4217343e-01 3.63e+00 7.37e+03  -6.0 5.42e+01  -5.7 3.20e-01 1.03e-01h  1
  87 -1.4318608e-01 2.66e+00 1.52e+03  -6.0 6.93e+01  -6.2 4.04e-02 2.68e-01h  1
  88 -1.4610205e-01 2.19e+00 1.09e+04  -6.0 2.57e+02  -6.7 1.20e-01 1.85e-01h  1
  89 -1.4950482e-01 1.85e+00 3.28e+04  -6.0 9.04e+01  -6.3 6.96e-01 3.60e-01h  1
iter    objective    inf_pr   inf_du lg(mu)  ||d||  lg(rg) alpha_du alpha_pr  ls
  90 -1.4951001e-01 1.85e+00 3.04e+04  -6.0 8.56e+00  -4.9 1.86e-02 4.59e-04h  1
  91 -1.5092116e-01 1.53e+00 3.51e+04  -6.0 2.63e+01  -5.4 3.51e-02 1.86e-01f  1
  92 -1.5095656e-01 1.53e+00 3.53e+04  -6.0 1.62e+01  -5.0 3.64e-04 3.01e-03h  1
  93 -1.5095191e-01 1.53e+00 3.52e+04  -6.0 4.88e+02  -5.5 3.28e-07 1.05e-04h  1
  94 -1.5095730e-01 1.53e+00 3.52e+04  -6.0 4.36e+02  -5.0 1.48e-04 7.80e-05f  1
  95 -1.5095198e-01 1.53e+00 3.50e+04  -6.0 3.75e+02  -5.5 6.10e-07 1.87e-04h  1
  96 -1.5096227e-01 1.53e+00 3.50e+04  -6.0 3.58e+01  -5.1 5.14e-04 6.98e-04f  1
  97 -1.5096214e-01 1.53e+00 3.50e+04  -6.0 1.82e+02  -5.6 3.47e-06 3.39e-05h  1
  98 -1.5096383e-01 1.53e+00 3.49e+04  -6.0 6.05e+00  -4.2 3.81e-04 2.04e-04f  1
  99 -1.5141277e-01 1.42e+00 5.24e+04  -6.0 1.55e+01  -4.7 1.22e-02 5.92e-02f  1
iter    objective    inf_pr   inf_du lg(mu)  ||d||  lg(rg) alpha_du alpha_pr  ls
 100 -1.5199425e-01 1.32e+00 5.04e+04  -6.0 2.00e+01  -5.2 5.71e-02 6.58e-02h  1
 101 -1.5203731e-01 1.32e+00 4.21e+04  -6.0 4.11e+01  -5.7 9.33e-02 2.69e-03h  1
 102 -1.5214201e-01 1.30e+00 4.08e+04  -6.0 1.99e+01  -5.2 2.16e-02 1.02e-02h  1
 103 -1.5250598e-01 1.27e+00 4.10e+04  -6.0 1.15e+02  -5.7 5.22e-04 2.20e-02f  1
 104 -1.5261614e-01 1.26e+00 3.70e+04  -6.0 1.31e+01  -5.3 7.33e-04 1.04e-02h  1
 105 -1.5262361e-01 1.26e+00 3.69e+04  -6.0 5.22e+02  -5.8 1.79e-07 9.29e-05f  1
 106 -1.5262429e-01 1.26e+00 3.58e+04  -6.0 8.73e+02  -5.3 1.20e-07 3.99e-05f  1
 107 -1.5262755e-01 1.26e+00 3.58e+04  -6.0 5.21e+02  -5.8 1.95e-07 3.88e-05f  1
 108 -1.5262800e-01 1.26e+00 3.54e+04  -6.0 4.77e+02  -5.4 5.51e-07 3.04e-05h  1
 109 -1.5262933e-01 1.25e+00 3.53e+04  -6.0 2.44e+02  -5.9 1.18e-06 2.89e-05h  1
iter    objective    inf_pr   inf_du lg(mu)  ||d||  lg(rg) alpha_du alpha_pr  ls
 110 -1.5262960e-01 1.25e+00 3.53e+04  -6.0 2.06e+02  -5.4 4.69e-06 2.20e-05h  1
 111 -1.5263183e-01 1.25e+00 3.53e+04  -6.0 1.39e+02  -5.9 1.81e-05 1.04e-04f  1
 112 -1.5263270e-01 1.25e+00 3.54e+04  -6.0 4.83e+01  -5.5 1.01e-04 7.66e-05f  1
 113 -1.5286813e-01 1.24e+00 5.09e+04  -6.0 1.94e+02  -6.0 2.08e-05 1.14e-02f  1
 114 -1.5309563e-01 1.20e+00 5.80e+04  -6.0 9.43e+00  -4.6 7.86e-04 2.74e-02h  1
 115 -1.5309976e-01 1.20e+00 5.81e+04  -6.0 7.09e+02  -5.1 2.23e-07 1.72e-04h  1
 116 -1.5309918e-01 1.20e+00 5.90e+04  -6.0 5.37e+02  -4.7 4.50e-04 1.93e-04f  1
 117 -1.5310783e-01 1.20e+00 5.93e+04  -6.0 2.98e+02  -5.2 2.42e-06 6.78e-04f  1
 118 -1.5310470e-01 1.20e+00 5.43e+04  -6.0 2.09e+03  -5.6 1.02e-08 9.49e-05h  1
 119 -1.5315620e-01 1.20e+00 5.32e+04  -6.0 4.37e+03  -6.1 5.85e-09 6.67e-05f  1
iter    objective    inf_pr   inf_du lg(mu)  ||d||  lg(rg) alpha_du alpha_pr  ls
 120 -1.5313476e-01 1.20e+00 4.78e+04  -6.0 6.76e+03  -6.6 6.00e-09 6.00e-05h  1
 121 -1.5316932e-01 1.20e+00 4.71e+04  -6.0 3.44e+03  -6.2 1.13e-08 5.70e-05f  1
 122 -1.5315661e-01 1.20e+00 4.38e+04  -6.0 4.86e+03  -6.7 1.46e-08 5.27e-05h  1
 123 -1.5317690e-01 1.20e+00 4.34e+04  -6.0 2.36e+03  -6.2 3.04e-08 4.91e-05f  1
 124 -1.5317045e-01 1.20e+00 4.18e+04  -6.0 3.06e+03  -6.7 4.75e-08 4.56e-05h  1
 125 -1.5318086e-01 1.20e+00 4.16e+04  -6.0 1.53e+03  -6.3 1.09e-07 4.12e-05f  1
 126 -1.5317833e-01 1.20e+00 4.10e+04  -6.0 1.69e+03  -6.8 2.13e-07 3.81e-05h  1
 127 -1.5318293e-01 1.20e+00 4.09e+04  -6.0 8.72e+02  -6.3 5.32e-07 3.24e-05f  1
 128 -1.5318243e-01 1.20e+00 4.07e+04  -6.0 7.31e+02  -6.8 1.46e-06 2.92e-05h  1
 129 -1.5318409e-01 1.20e+00 4.07e+04  -6.0 4.42e+02  -6.4 3.75e-06 2.15e-05f  1
iter    objective    inf_pr   inf_du lg(mu)  ||d||  lg(rg) alpha_du alpha_pr  ls
 130 -1.5318425e-01 1.20e+00 4.07e+04  -6.0 1.95e+02  -6.9 9.72e-05 2.88e-05h  1
 131 -1.5318492e-01 1.20e+00 4.07e+04  -6.0 1.41e+02  -6.4 9.57e-05 2.03e-05h  1
 132 -1.5296927e-01 1.19e+00 1.84e+04  -6.0 1.52e+03  -6.9 7.58e-03 3.82e-03h  1
 133 -1.5778187e-01 1.49e+00 4.92e+04  -6.0 8.56e+01  -6.5 5.31e-02 1.86e-01h  1
 134 -1.5895746e-01 1.41e+00 6.81e+04  -6.0 4.12e+01  -6.1 2.18e-02 6.93e-02h  1
 135 -1.5874007e-01 1.40e+00 6.71e+04  -6.0 3.44e+02  -5.6 8.68e-04 1.27e-02h  1
 136 -1.5969244e-01 1.33e+00 6.31e+04  -6.0 6.66e+01  -6.1 2.14e-04 5.97e-02h  1
 137 -1.5974863e-01 1.31e+00 6.23e+04  -6.0 5.68e+01  -4.8 3.46e-02 1.25e-02h  1
 138 -1.5975261e-01 1.31e+00 6.23e+04  -6.0 5.49e+01  -5.3 2.36e-02 2.62e-04h  1
 139 -1.6005388e-01 1.29e+00 6.71e+04  -6.0 5.24e+01  -5.7 1.06e-01 1.79e-02f  1
iter    objective    inf_pr   inf_du lg(mu)  ||d||  lg(rg) alpha_du alpha_pr  ls
 140 -1.6049623e-01 1.24e+00 7.74e+04  -6.0 4.07e+01  -6.2 4.52e-03 5.88e-02h  1
 141 -1.6740997e-01 8.82e+00 6.11e+04  -6.0 3.27e+02  -6.7 2.14e-01 2.11e-01h  1
 142 -1.7038731e-01 8.83e+00 5.18e+04  -6.0 1.84e+02  -7.2 2.68e-01 1.50e-01h  1
 143 -1.7072863e-01 8.73e+00 5.13e+04  -6.0 1.00e+03  -7.6 2.86e-05 1.50e-02h  1
 144 -1.7085215e-01 8.73e+00 5.06e+04  -6.0 7.15e+02  -8.1 1.55e-01 4.56e-03h  1
 145 -1.7210693e-01 9.57e+00 4.51e+04  -6.0 2.84e+02  -7.7 1.07e-03 9.55e-02h  1
 146 -1.7270996e-01 9.32e+00 4.41e+04  -6.0 7.56e+02  -8.2 8.15e-02 2.86e-02h  1
 147 -1.7586187e-01 7.46e+00 3.41e+04  -6.0 3.25e+02  -7.7 3.52e-03 2.10e-01h  1
 148 -1.8490172e-01 7.64e+00 2.50e+04  -6.0 9.16e+02  -8.2 2.28e-01 2.69e-01h  1
 149 -1.8648659e-01 6.96e+00 2.30e+04  -6.0 3.84e+02  -7.8 2.38e-01 9.55e-02h  1
iter    objective    inf_pr   inf_du lg(mu)  ||d||  lg(rg) alpha_du alpha_pr  ls
 150 -1.9564225e-01 5.35e+00 1.55e+04  -6.0 1.05e+03  -8.3 3.39e-01 3.26e-01h  1
 151 -1.9584513e-01 5.33e+00 1.86e+06  -6.0 1.49e+03  -7.8 3.22e-04 4.23e-03h  1
 152 -1.9977566e-01 2.27e+00 8.38e+05  -6.0 1.72e+02  -7.4 1.12e-01 5.41e-01f  1
 153 -2.0246603e-01 2.99e+00 6.72e+05  -6.0 4.98e+02  -7.9 5.21e-01 1.95e-01h  1
 154 -2.0627449e-01 1.96e+00 2.39e+05  -6.0 1.83e+02  -7.5 2.00e-04 6.45e-01h  1
 155 -2.0682673e-01 1.61e+00 1.92e+05  -6.0 7.21e+01  -7.0 6.16e-01 1.94e-01h  1
 156 -2.0770217e-01 1.43e+00 1.66e+05  -6.0 4.47e+02  -7.5 1.12e-05 1.36e-01h  1
 157 -2.0883695e-01 2.81e+00 1.32e+05  -6.0 4.44e+02  -7.1 6.22e-02 2.05e-01h  1
 158 -2.0912798e-01 2.63e+00 1.22e+05  -6.0 6.96e+01  -6.7 1.53e-01 7.67e-02h  1
 159 -2.1215631e-01 1.64e+01 2.30e+04  -6.0 9.11e+01  -7.1 2.57e-01 8.12e-01h  1
iter    objective    inf_pr   inf_du lg(mu)  ||d||  lg(rg) alpha_du alpha_pr  ls
 160 -2.1236434e-01 1.60e+01 2.24e+04  -6.0 2.37e+02  -7.6 1.01e-01 2.58e-02h  1
 161 -2.1379805e-01 1.64e+01 2.03e+04  -6.0 6.65e+02  -8.1 4.08e-02 9.53e-02h  1
 162 -2.1608982e-01 1.52e+01 1.88e+04  -6.0 2.05e+03  -8.6 2.42e-01 7.13e-02h  1
 163 -2.1815426e-01 1.27e+01 1.58e+04  -6.0 8.03e+02  -8.2 2.25e-01 1.58e-01h  1
 164 -2.1948621e-01 1.21e+01 1.50e+04  -6.0 1.51e+03  -8.6 5.39e-01 5.34e-02h  1
 165 -2.2368872e-01 6.61e+00 8.38e+03  -6.0 5.59e+02  -8.2 5.30e-01 4.44e-01h  1
 166 -2.2389107e-01 6.52e+00 8.24e+03  -6.0 1.12e+03  -8.7 6.63e-02 1.36e-02h  1
 167 -2.2773100e-01 2.28e+00 2.92e+03  -6.0 4.39e+02  -8.3 9.62e-01 6.50e-01h  1
 168 -2.2931395e-01 2.00e+00 2.51e+03  -6.0 1.15e+03  -8.7 4.05e-01 1.33e-01h  1
 169 -2.3460003e-01 2.25e+00 1.63e+01  -6.0 3.82e+02  -8.3 1.00e+00 1.00e+00h  1
iter    objective    inf_pr   inf_du lg(mu)  ||d||  lg(rg) alpha_du alpha_pr  ls
 170 -2.3565229e-01 1.64e+00 1.26e+02  -6.0 2.46e+02  -7.9 3.98e-01 3.82e-01h  1
 171 -2.3959946e-01 1.07e+01 3.20e+03  -6.0 8.11e+02  -8.4 2.80e-01 5.25e-01h  1
 172 -2.3970413e-01 1.04e+01 2.06e+03  -6.0 3.57e+02  -7.9 1.91e-01 2.87e-02h  1
 173 -2.4061256e-01 5.79e+00 4.51e+02  -6.0 4.92e+02  -8.4 4.86e-01 4.60e-01h  1
 174 -2.4082966e-01 5.66e+00 4.34e+03  -6.0 8.20e+03  -8.9 1.34e-01 1.85e-02h  1
 175 -2.4146189e-01 4.07e+00 5.80e+03  -6.0 2.62e+02  -8.5 4.13e-01 2.83e-01h  1
 176 -2.4231763e-01 3.38e+00 9.77e+03  -6.0 2.18e+03  -8.9 5.17e-01 1.71e-01h  1
 177 -2.4229367e-01 3.38e+00 9.66e+03  -6.0 3.85e+04  -8.5 2.53e-04 2.84e-04h  4
 178 -2.4227856e-01 3.37e+00 1.16e+04  -6.0 3.94e+03  -8.1 6.04e-02 4.06e-03h  5
 179 -2.4253476e-01 2.28e+00 8.94e+03  -6.0 9.18e+01  -7.7 2.88e-01 3.23e-01h  1
iter    objective    inf_pr   inf_du lg(mu)  ||d||  lg(rg) alpha_du alpha_pr  ls
 180 -2.4335093e-01 5.64e-01 2.55e+07  -6.0 1.87e+02  -8.1 1.58e-03 9.42e-01h  1
 181 -2.4426200e-01 7.08e-01 1.47e+07  -6.0 2.99e+02  -8.6 4.37e-01 4.22e-01h  1
 182 -2.4473778e-01 8.19e-01 1.32e+07  -6.0 1.34e+03  -9.1 4.02e-01 1.01e-01h  1
 183 -2.4480847e-01 7.91e-01 1.27e+07  -6.0 4.95e+02  -8.7 1.00e+00 3.62e-02h  1
 184 -2.4570350e-01 1.38e+00 1.11e+07  -6.0 3.24e+03  -9.1 9.79e-02 1.26e-01h  1
 185 -2.4569238e-01 1.28e+00 1.03e+07  -6.0 1.51e+02  -4.2 8.42e-04 7.44e-02h  1
 186 -2.4567078e-01 1.14e+00 9.14e+06  -6.0 2.99e+00  -3.8 7.50e-02 1.12e-01h  1
 187 -2.4562935e-01 8.92e-01 7.16e+06  -6.0 2.85e+00  -4.3 1.44e-01 2.16e-01h  1
 188 -2.4562529e-01 8.67e-01 6.96e+06  -6.0 2.18e+00  -3.8 3.39e-01 2.79e-02h  1
 189 -2.4549655e-01 2.77e-01 1.88e+06  -6.0 2.16e+00  -4.3 5.76e-01 7.30e-01h  1
iter    objective    inf_pr   inf_du lg(mu)  ||d||  lg(rg) alpha_du alpha_pr  ls
 190 -2.4549957e-01 2.31e-01 1.56e+06  -6.0 7.45e-01  -4.8 7.77e-01 1.67e-01h  1
 191 -2.4555230e-01 1.74e-01 1.09e+06  -6.0 3.44e+00  -5.3 1.00e+00 3.06e-01h  1
 192 -2.4555436e-01 9.71e-02 2.73e+05  -6.0 1.75e+00  -5.7 7.58e-01 7.48e-01h  1
 193 -2.4557633e-01 9.19e-02 2.45e+05  -6.0 3.64e+00  -6.2 1.00e+00 1.05e-01h  1
 194 -2.4566598e-01 5.41e-02 9.54e+04  -6.0 7.80e+00  -6.7 7.00e-01 6.09e-01h  1
 195 -2.4573872e-01 6.62e-02 2.54e+00  -6.0 2.36e+01  -7.2 1.00e+00 1.00e+00f  1
 196 -2.4608177e-01 9.41e-01 1.00e+00  -6.0 8.22e+01  -7.6 1.00e+00 1.00e+00h  1
 197 -2.4711666e-01 1.52e+01 1.83e+01  -6.0 4.36e+02  -8.1 2.08e-01 5.73e-01h  1
 198 -2.4711511e-01 1.49e+01 1.83e+01  -6.0 1.12e+02  -6.8 7.18e-02 2.00e-02h  1
 199 -2.4704550e-01 1.26e+01 3.04e+02  -6.0 8.01e+01  -7.3 2.11e-02 1.51e-01h  1
iter    objective    inf_pr   inf_du lg(mu)  ||d||  lg(rg) alpha_du alpha_pr  ls
 200 -2.4699035e-01 1.19e+01 2.80e+02  -6.0 7.92e+01  -7.7 7.98e-03 5.50e-02h  1
 201 -2.4699047e-01 1.19e+01 2.79e+02  -6.0 5.83e+01  -2.8 2.21e-05 1.50e-03h  1
 202 -2.4698576e-01 1.17e+01 2.73e+02  -6.0 9.52e+00  -2.4 1.61e-04 1.68e-02h  1
 203 -2.4698487e-01 1.17e+01 2.74e+02  -6.0 2.59e+01  -2.9 7.53e-03 7.74e-04h  1
 204 -2.4698364e-01 1.15e+01 2.70e+02  -6.0 7.59e+00  -2.4 3.05e-02 1.98e-02h  1
 205 -2.4696254e-01 1.09e+01 2.51e+02  -6.0 1.32e+01  -2.9 9.69e-03 5.23e-02h  1
 206 -2.4693529e-01 1.08e+01 2.48e+02  -6.0 6.77e+01  -3.4 3.62e-03 7.01e-03h  1
 207 -2.4693612e-01 9.67e+00 2.16e+02  -6.0 6.13e+00  -3.0 7.83e-03 1.05e-01h  1
 208 -2.4692652e-01 9.62e+00 2.14e+02  -6.0 3.58e+01  -3.4 2.49e-04 5.35e-03h  1
 209 -2.4692715e-01 9.60e+00 2.14e+02  -6.0 5.03e+01  -3.0 3.02e-02 2.10e-03f  1
iter    objective    inf_pr   inf_du lg(mu)  ||d||  lg(rg) alpha_du alpha_pr  ls
 210 -2.4686893e-01 9.55e+00 2.08e+02  -6.0 3.55e+02  -3.5 2.56e-05 4.58e-03h  1
 211 -2.4686887e-01 9.55e+00 2.08e+02  -6.0 6.28e+00  -3.1 1.56e-03 9.72e-04h  1
 212 -2.4685883e-01 9.31e+00 2.03e+02  -6.0 5.47e+00  -2.6 4.72e-02 2.46e-02h  1
 213 -2.4681696e-01 8.12e+00 1.78e+02  -6.0 6.35e+00  -3.1 3.12e-01 1.27e-01h  1
 214 -2.4677232e-01 6.02e+00 1.33e+02  -6.0 4.13e+00  -2.7 3.79e-02 2.58e-01h  1
 215 -2.4671392e-01 2.34e+00 7.81e+01  -6.0 2.61e+00  -3.2 4.12e-01 6.11e-01h  1
 216 -2.4669089e-01 1.65e-02 3.53e+01  -6.0 7.30e-01  -3.6 6.56e-01 1.00e+00h  1
 217 -2.4675092e-01 3.94e-03 5.88e+00  -6.0 5.53e-01  -4.1 7.22e-01 8.22e-01h  1
 218 -2.4680420e-01 3.56e-03 4.19e+00  -6.0 1.68e+00  -4.6 6.23e-01 2.86e-01f  1
 219 -2.4688490e-01 4.60e-03 7.24e+00  -6.0 4.15e+00  -5.1 1.00e+00 2.27e-01f  1
iter    objective    inf_pr   inf_du lg(mu)  ||d||  lg(rg) alpha_du alpha_pr  ls
 220 -2.4690954e-01 4.20e-03 6.24e+00  -6.0 2.40e+00  -5.5 4.06e-01 1.19e-01f  1
 221 -2.4692683e-01 3.63e-03 3.80e+00  -6.0 2.00e+00  -6.0 6.73e-01 1.67e-01f  1
 222 -2.4701529e-01 4.37e-03 2.35e+00  -6.0 3.66e+00  -6.5 1.00e+00 9.60e-01f  1
 223 -2.4706634e-01 1.79e-02 1.92e+00  -6.0 7.70e+00  -7.0 1.00e+00 1.00e+00f  1
 224 -2.4721868e-01 9.25e-03 1.97e-01  -6.0 2.22e+01  -7.5 1.00e+00 1.00e+00h  1
 225 -2.4761513e-01 7.53e-02 1.32e-01  -6.0 6.34e+01  -7.9 1.00e+00 1.00e+00h  1
 226 -2.4835749e-01 3.10e-01 8.02e+00  -6.0 1.79e+02  -8.4 1.00e+00 7.49e-01h  1
 227 -2.5003638e-01 2.36e+00 5.10e+00  -6.0 4.83e+02  -8.9 1.00e+00 8.88e-01h  1
 228 -2.5235084e-01 1.87e+01 3.95e+01  -6.0 2.25e+03  -9.4 5.18e-01 4.05e-01h  1
 229 -2.5357440e-01 1.76e+01 3.79e+01  -6.0 3.53e+03  -9.8 2.98e-02 1.66e-01h  1
iter    objective    inf_pr   inf_du lg(mu)  ||d||  lg(rg) alpha_du alpha_pr  ls
 230 -2.5441406e-01 1.84e+01 1.34e+02  -6.0 4.29e+03  -9.4 3.53e-02 6.94e-02h  1
 231 -2.5674972e-01 2.87e+01 2.20e+02  -6.0 4.02e+03  -9.9 3.05e-02 2.40e-01h  1
 232 -2.5694571e-01 2.76e+01 1.77e+02  -6.0 4.02e+03 -10.4 4.78e-02 3.91e-02h  1
 233 -2.5765226e-01 2.45e+01 2.46e+03  -6.0 6.62e+03 -10.8 1.33e-02 1.13e-01h  1
 234 -2.5849142e-01 1.41e+01 1.29e+03  -6.0 1.02e+03  -9.5 1.25e-01 4.26e-01h  1
 235 -2.5893328e-01 1.35e+01 1.23e+03  -6.0 4.66e+04 -10.0 1.51e-02 4.57e-02h  1
 236 -2.5942651e-01 2.32e+01 1.20e+03  -6.0 4.40e+04    -  2.84e-04 2.94e-02h  1
 237 -2.5956343e-01 2.31e+01 1.19e+03  -6.0 1.72e+04    -  1.90e-02 8.16e-03h  1
 238 -2.5961847e-01 2.07e+01 1.07e+03  -6.0 9.25e+02  -9.6 2.79e-01 1.01e-01h  1
 239 -2.6014701e-01 1.78e+01 8.15e+02  -6.0 4.61e+03    -  1.92e-01 2.38e-01h  1
iter    objective    inf_pr   inf_du lg(mu)  ||d||  lg(rg) alpha_du alpha_pr  ls
 240 -2.6155574e-01 2.37e+01 2.99e+02  -6.0 3.61e+03    -  2.78e-04 6.20e-01h  1
 241 -2.6107544e-01 6.94e+00 7.70e+01  -6.0 1.48e+03    -  3.69e-01 1.00e+00h  1
 242 -2.6106522e-01 6.89e+00 7.66e+01  -6.0 1.62e+04 -10.0 4.20e-03 7.74e-03h  4
 243 -2.6107085e-01 3.85e+00 3.77e+01  -6.0 1.05e+03    -  3.13e-01 5.30e-01h  1
 244 -2.6107906e-01 1.76e+01 7.20e+01  -6.0 2.25e+03    -  3.61e-01 9.52e-01H  1
 245 -2.6111590e-01 7.60e+00 4.18e+01  -6.0 2.35e+03    -  3.45e-01 4.43e-01h  2
 246 -2.6121751e-01 6.98e+00 1.91e+01  -6.0 9.96e+02    -  5.19e-01 5.54e-01h  1
 247 -2.6122258e-01 6.72e+00 2.24e+01  -6.0 6.27e+02    -  4.80e-01 3.76e-02h  1
 248 -2.6122517e-01 1.17e+01 1.72e+01  -6.0 1.05e+03    -  3.08e-01 1.00e+00h  1
 249 -2.6126265e-01 7.77e-01 5.05e+01  -6.0 3.40e+02    -  4.92e-01 1.00e+00h  1
iter    objective    inf_pr   inf_du lg(mu)  ||d||  lg(rg) alpha_du alpha_pr  ls
 250 -2.6126602e-01 7.03e-01 4.56e+01  -6.0 4.73e+02 -10.5 1.00e+00 1.58e-01h  1
 251 -2.6127571e-01 1.31e+00 1.53e+01  -6.0 2.71e+02    -  1.00e+00 1.00e+00h  1
 252 -2.6126426e-01 1.21e+00 2.02e+00  -6.0 4.34e+02 -10.1 8.86e-01 6.32e-01h  1
 253 -2.6126223e-01 1.52e+00 5.26e+00  -6.0 9.11e+02    -  6.22e-01 2.50e-01h  3
 254 -2.6125725e-01 1.11e+00 2.29e+00  -6.0 3.48e+02    -  1.00e+00 5.67e-01h  1
 255 -2.6125347e-01 1.86e+00 4.92e+00  -6.0 6.03e+02    -  1.00e+00 6.44e-01H  1
 256 -2.6125263e-01 8.77e-01 8.35e+00  -6.0 2.74e+02    -  6.25e-02 1.00e+00h  1
 257 -2.6125237e-01 1.90e-03 2.05e-04  -6.0 1.37e+01    -  1.00e+00 1.00e+00h  1
 258 -2.6125211e-01 2.01e-01 9.50e+00  -6.0 7.32e+02    -  1.00e+00 1.79e-01h  2
 259 -2.6125185e-01 6.20e-02 2.90e-03  -6.0 7.34e+01    -  1.00e+00 1.00e+00h  1
iter    objective    inf_pr   inf_du lg(mu)  ||d||  lg(rg) alpha_du alpha_pr  ls
 260 -2.6125195e-01 1.60e-05 8.79e-06  -6.0 1.12e+00    -  1.00e+00 1.00e+00h  1
 261 -2.6179697e-01 1.91e+00 2.67e+01  -7.5 2.65e+03    -  1.98e-01 2.50e-01h  1
 262 -2.6186622e-01 1.86e+00 5.86e+01  -7.5 2.47e+03    -  3.68e-01 4.88e-02h  1
 263 -2.6206346e-01 2.16e+00 6.84e+01  -7.5 2.11e+03    -  2.93e-01 1.61e-01h  1
 264 -2.6206785e-01 1.75e+00 4.70e+01  -7.5 9.40e-01  -5.2 1.10e-01 1.92e-01h  1
 265 -2.6206785e-01 1.75e+00 4.70e+01  -7.5 8.73e-01  -1.1 3.69e-07 6.62e-07h  2
 266 -2.6206785e-01 1.74e+00 1.23e+02  -7.5 2.67e-01   1.1 2.41e-02 1.31e-05h  1
 267 -2.6206669e-01 1.68e+00 2.05e+02  -7.5 2.66e-01   0.6 2.35e-02 3.97e-02h  1
 268 -2.6206658e-01 1.67e+00 2.07e+02  -7.5 2.56e-01   0.2 9.55e-02 5.65e-03h  1
 269 -2.6206567e-01 1.60e+00 2.07e+02  -7.5 2.54e-01  -0.3 1.08e-02 4.17e-02h  1
iter    objective    inf_pr   inf_du lg(mu)  ||d||  lg(rg) alpha_du alpha_pr  ls
 270 -2.6206426e-01 1.47e+00 1.90e+02  -7.5 2.44e-01  -0.8 1.89e-01 7.93e-02h  1
 271 -2.6206224e-01 1.39e+00 1.80e+02  -7.5 2.73e-01  -1.3 7.07e-02 5.36e-02h  1
 272 -2.6206179e-01 1.38e+00 1.78e+02  -7.5 2.57e-01  -1.7 2.02e-01 1.01e-02h  1
 273 -2.6205605e-01 1.20e+00 4.36e+02  -7.5 2.53e-01  -2.2 2.89e-02 1.31e-01h  1
 274 -2.6205525e-01 1.10e+00 4.03e+02  -7.5 2.37e-01  -2.7 2.06e-01 8.38e-02h  1
 275 -2.6205523e-01 1.09e+00 7.57e+02  -7.5 4.36e-01  -3.2 1.43e-01 1.99e-03h  1
 276 -2.6205607e-01 9.23e-01 8.29e+02  -7.5 2.18e-01  -2.8 4.88e-01 1.57e-01h  1
 277 -2.6205387e-01 8.51e-01 6.87e+02  -7.5 3.94e-01  -3.2 3.18e-01 7.84e-02h  1
 278 -2.6205247e-01 8.18e-01 6.29e+02  -7.5 8.24e-01  -3.7 1.65e-01 3.81e-02h  1
 279 -2.6205033e-01 4.32e-01 4.67e+02  -7.5 1.86e-01  -3.3 7.69e-02 4.73e-01h  1
iter    objective    inf_pr   inf_du lg(mu)  ||d||  lg(rg) alpha_du alpha_pr  ls
 280 -2.6205205e-01 3.81e-01 6.11e+01  -7.5 1.32e-01  -3.8 8.57e-01 1.17e-01h  1
 281 -2.6205370e-01 3.74e-01 4.77e+01  -7.5 2.87e-01  -3.3 8.34e-01 1.94e-02h  1
 282 -2.6205748e-01 2.93e-01 3.74e+01  -7.5 9.56e-02  -3.8 8.63e-01 2.16e-01h  1
 283 -2.6205632e-01 2.65e-01 3.39e+01  -7.5 2.42e-01  -4.3 1.00e+00 9.48e-02h  1
 284 -2.6206115e-01 1.70e-01 2.17e+01  -7.5 5.12e-01  -4.8 1.00e+00 3.60e-01h  1
 285 -2.6206043e-01 6.36e-02 8.12e+00  -7.5 8.33e-02  -4.3 1.00e+00 6.25e-01h  1
 286 -2.6206241e-01 3.12e-02 3.98e+00  -7.5 1.94e-01  -4.8 1.00e+00 5.10e-01f  1
 287 -2.6206656e-01 1.77e-02 2.37e+00  -7.5 5.02e-01  -5.3 1.00e+00 4.32e-01h  1
 288 -2.6207257e-01 1.25e-02 2.42e+00  -7.5 1.12e+00  -5.8 1.00e+00 2.94e-01h  1
 289 -2.6207829e-01 1.05e-02 2.98e+00  -7.5 2.67e+00  -6.2 1.00e+00 1.56e-01h  1
iter    objective    inf_pr   inf_du lg(mu)  ||d||  lg(rg) alpha_du alpha_pr  ls
 290 -2.6209119e-01 9.75e-03 2.74e+00  -7.5 4.50e+01  -6.7 1.11e-01 7.55e-02h  1
 291 -2.6209774e-01 7.29e-04 1.34e-01  -7.5 2.20e+00  -6.3 1.00e+00 1.00e+00h  1
 292 -2.6210181e-01 6.77e-04 1.24e-01  -7.5 6.85e+00  -6.8 7.20e-02 7.16e-02h  1
 293 -2.6210182e-01 6.77e-04 1.24e-01  -7.5 2.15e+01  -7.3 1.20e-04 6.03e-05h  1
 294 -2.6210114e-01 6.77e-04 2.36e-01  -7.5 2.18e+03  -7.7 1.99e-04 1.80e-05f  8
 295 -2.6218521e-01 2.52e-02 3.41e+00  -7.5 1.67e+02  -8.2 8.09e-01 1.78e-01h  1
 296 -2.6218811e-01 2.52e-02 6.46e+02  -7.5 3.57e+02  -8.7 3.25e-01 3.17e-03h  1
 297 -2.6221393e-01 2.67e-02 5.58e+02  -7.5 6.48e+02  -9.2 1.36e-01 1.86e-02h  1
 298 -2.6265229e-01 6.83e-01 5.25e+02  -7.5 8.79e+02  -9.6 9.77e-02 2.57e-01f  1
 299 -2.6266244e-01 6.61e-01 2.09e+02  -7.5 6.16e+02 -10.1 5.17e-01 3.15e-02h  1
iter    objective    inf_pr   inf_du lg(mu)  ||d||  lg(rg) alpha_du alpha_pr  ls
 300 -2.6281321e-01 3.43e+00 1.24e+02  -7.5 2.38e+03    -  4.06e-01 3.41e-01h  1
 301 -2.6283121e-01 3.11e+00 1.14e+02  -7.5 1.63e+03    -  7.35e-02 1.07e-01h  1
 302 -2.6285588e-01 2.68e+00 2.67e+01  -7.5 1.60e+03    -  8.80e-01 1.77e-01f  1
 303 -2.6288456e-01 2.25e+00 2.57e+01  -7.5 1.52e+03    -  7.60e-02 2.39e-01h  1
 304 -2.6288457e-01 2.24e+00 2.56e+01  -7.5 4.98e+00  -2.3 2.67e-06 4.42e-03h  1
 305 -2.6288438e-01 2.17e+00 2.47e+01  -7.5 4.82e-01  -2.7 2.46e-02 3.41e-02h  1
 306 -2.6288437e-01 2.16e+00 2.61e+01  -7.5 4.77e-01  -1.4 1.18e-02 8.17e-04h  1
 307 -2.6288356e-01 2.12e+00 2.55e+01  -7.5 4.77e-01  -1.9 2.03e-02 2.08e-02h  1
 308 -2.6288271e-01 2.08e+00 2.50e+01  -7.5 4.68e-01  -2.4 2.22e-02 2.02e-02h  1
 309 -2.6287952e-01 1.92e+00 2.50e+01  -7.5 4.58e-01  -2.8 3.33e-02 7.74e-02h  1
iter    objective    inf_pr   inf_du lg(mu)  ||d||  lg(rg) alpha_du alpha_pr  ls
 310 -2.6287448e-01 1.61e+00 2.03e+01  -7.5 4.23e-01  -3.3 5.02e-02 1.61e-01h  1
 311 -2.6287394e-01 1.58e+00 2.17e+01  -7.5 3.54e-01  -2.9 3.03e-03 1.77e-02h  1
 312 -2.6287391e-01 1.58e+00 2.17e+01  -7.5 8.03e-01  -3.4 8.06e-06 8.98e-04h  1
 313 -2.6287383e-01 1.57e+00 2.17e+01  -7.5 3.47e-01  -2.0 1.24e-03 2.11e-03h  1
 314 -2.6287374e-01 1.57e+00 2.16e+01  -7.5 3.46e-01  -2.5 9.82e-04 2.87e-03h  1
 315 -2.6287365e-01 1.56e+00 2.15e+01  -7.5 3.45e-01  -2.1 2.38e-03 2.62e-03h  1
 316 -2.6287353e-01 1.56e+00 2.14e+01  -7.5 3.44e-01  -2.6 1.22e-03 3.51e-03h  1
 317 -2.6287343e-01 1.55e+00 2.13e+01  -7.5 3.43e-01  -2.2 2.54e-03 2.97e-03h  1
 318 -2.6287333e-01 1.55e+00 2.12e+01  -7.5 3.42e-01  -2.6 7.73e-04 3.03e-03h  1
 319 -2.6287325e-01 1.55e+00 2.11e+01  -7.5 3.41e-01  -2.2 2.08e-03 2.42e-03h  1
iter    objective    inf_pr   inf_du lg(mu)  ||d||  lg(rg) alpha_du alpha_pr  ls
 320 -2.6287305e-01 1.54e+00 2.08e+01  -7.5 3.40e-01  -2.7 8.60e-04 6.04e-03h  1
 321 -2.6287287e-01 1.53e+00 2.08e+01  -7.5 3.38e-01  -2.3 2.63e-03 5.42e-03h  1
 322 -2.6287283e-01 1.53e+00 2.08e+01  -7.5 3.36e-01  -2.7 1.27e-04 1.32e-03h  1
 323 -2.6287282e-01 1.53e+00 2.08e+01  -7.5 3.58e-01  -2.3 1.23e-04 1.83e-04h  1
 324 -2.6287275e-01 1.52e+00 1.06e+02  -7.5 3.36e-01  -2.8 1.71e-01 2.10e-03f  1
 325 -2.6285966e-01 7.11e-01 5.08e+01  -7.5 3.36e-01  -3.3 5.13e-01 5.33e-01h  1
 326 -2.6284968e-01 2.74e-04 1.96e+00  -7.5 1.56e-01  -3.7 9.54e-01 1.00e+00h  1
 327 -2.6285385e-01 1.86e-04 3.45e+00  -7.5 1.49e-01  -4.2 1.00e+00 2.88e-01h  1
 328 -2.6287042e-01 7.83e-04 1.20e+00  -7.5 5.22e-01  -4.7 8.91e-01 6.18e-01f  1
 329 -2.6287013e-01 6.83e-04 4.65e-01  -7.5 4.91e-01  -5.2 1.00e+00 1.28e-01h  1
iter    objective    inf_pr   inf_du lg(mu)  ||d||  lg(rg) alpha_du alpha_pr  ls
 330 -2.6287108e-01 4.23e-04 2.66e-01  -7.5 2.48e-01  -5.6 1.00e+00 4.28e-01f  1
 331 -2.6287367e-01 1.38e-03 7.91e-01  -7.5 4.85e-01  -6.1 1.00e+00 9.58e-01f  1
 332 -2.6293824e-01 1.89e+00 6.15e-01  -7.5 2.55e+03    -  5.28e-01 3.12e-01f  1
 333 -2.6295065e-01 1.22e+00 4.00e-01  -7.5 9.38e+02    -  1.00e+00 4.43e-01h  1
 334 -2.6296079e-01 7.89e-01 3.39e-01  -7.5 8.20e+02    -  1.00e+00 5.12e-01h  1
 335 -2.6297006e-01 5.42e-01 6.97e-01  -7.5 7.09e+02    -  8.29e-01 7.46e-01h  1
 336 -2.6297677e-01 4.80e-01 8.08e-01  -7.5 3.43e+02    -  6.82e-01 1.14e-01h  1
 337 -2.6299834e-01 7.26e-01 1.23e-01  -7.5 5.05e+02    -  8.07e-01 7.28e-01f  1
 338 -2.6300240e-01 9.53e-01 6.37e-02  -7.5 1.73e+02    -  1.00e+00 8.18e-01h  1
 339 -2.6300265e-01 4.31e-02 2.96e-04  -7.5 2.35e+01    -  1.00e+00 1.00e+00h  1
iter    objective    inf_pr   inf_du lg(mu)  ||d||  lg(rg) alpha_du alpha_pr  ls
 340 -2.6300273e-01 1.74e-02 2.30e-05  -7.5 1.26e+01    -  1.00e+00 1.00e+00h  1
 341 -2.6300273e-01 3.82e-04 6.51e-07  -7.5 2.00e+00    -  1.00e+00 1.00e+00h  1
 342 -2.6300273e-01 3.72e-08 6.38e-11  -7.5 1.96e-02    -  1.00e+00 1.00e+00h  1
 343 -2.6300454e-01 2.17e-03 3.64e+00  -9.0 2.45e+02    -  4.73e-01 7.79e-02h  1
In iteration 343, 1 Slack too small, adjusting variable bound
 344 -2.6300522e-01 3.32e-04 8.24e-01  -9.0 3.65e-03  -2.1 9.02e-01 8.47e-01h  1
 345 -2.6300540e-01 7.01e-09 6.25e-03  -9.0 1.54e-03  -2.6 1.00e+00 1.00e+00h  1
 346 -2.6300548e-01 1.38e-08 1.20e-01  -9.0 4.02e-03  -3.0 1.00e+00 5.11e-01h  1
 347 -2.6300560e-01 6.07e-08 8.31e-02  -9.0 1.10e-02  -3.5 2.97e-01 3.48e-01f  1
 348 -2.6300562e-01 6.12e-08 7.98e-02  -9.0 2.86e-02  -4.0 4.43e-02 2.65e-02f  1
 349 -2.6300561e-01 6.27e-08 4.03e-01  -9.0 3.71e-01  -4.5 5.65e-01 5.53e-03f  4
iter    objective    inf_pr   inf_du lg(mu)  ||d||  lg(rg) alpha_du alpha_pr  ls
 350 -2.6300581e-01 8.39e-07 6.99e-02  -9.0 9.62e-02  -4.9 1.00e+00 1.40e-01h  1
 351 -2.6300592e-01 1.03e-06 9.52e-02  -9.0 1.60e-01  -5.4 6.60e-01 1.60e-01f  1
 352 -2.6300600e-01 2.96e-06 7.66e-01  -9.0 1.75e-01  -5.9 1.00e+00 1.93e-01f  1
 353 -2.6300611e-01 4.59e-06 6.93e-02  -9.0 4.74e-01  -6.4 5.32e-01 2.84e-01f  1
 354 -2.6300643e-01 3.12e-06 1.04e-01  -9.0 1.42e+00  -6.9 1.00e+00 4.32e-01f  1
 355 -2.6300697e-01 8.65e-06 2.29e-02  -9.0 4.72e+00  -7.3 8.29e-01 3.97e-01f  1
 356 -2.6300697e-01 8.93e-06 3.79e-01  -9.0 5.37e-01  -7.8 1.00e+00 1.67e-01f  3
 357 -2.6300709e-01 8.77e-05 5.84e-02  -9.0 1.25e+00  -8.3 8.99e-01 1.00e+00h  1
 358 -2.6300722e-01 2.61e-01 3.61e-01  -9.0 5.26e+03    -  5.61e-01 2.85e-02h  1
 359 -2.6300939e-01 3.59e-01 4.06e-02  -9.0 2.08e+02    -  1.00e+00 1.00e+00h  1
iter    objective    inf_pr   inf_du lg(mu)  ||d||  lg(rg) alpha_du alpha_pr  ls
 360 -2.6300848e-01 4.53e-02 1.45e-02  -9.0 5.30e+00    -  5.85e-01 8.78e-01h  1
 361 -2.6300835e-01 1.21e-04 2.37e-02  -9.0 7.06e-01    -  1.00e+00 1.00e+00h  1
 362 -2.6300835e-01 3.96e-08 2.08e-02  -9.0 5.57e-03    -  9.26e-01 1.00e+00h  1
 363 -2.6300835e-01 1.40e-06 1.17e+00  -9.0 5.39e-02    -  4.82e-01 1.00e+00H  1
 364 -2.6300835e-01 1.37e-06 1.07e+00  -9.0 9.33e-02  -6.1 1.97e-01 7.42e-02h  2
 365 -2.6300835e-01 1.11e-06 9.04e-01  -9.0 1.81e-03  -4.7 1.00e+00 1.91e-01h  2
 366 -2.6300835e-01 5.08e-10 9.80e-03  -9.0 5.61e-04  -5.2 1.00e+00 1.00e+00h  1
 367 -2.6300835e-01 2.15e-09 5.69e-03  -9.0 2.53e-03    -  1.00e+00 5.00e-01h  2
 368 -2.6300835e-01 1.13e-08 5.04e-05  -9.0 1.28e-03    -  1.00e+00 1.00e+00H  1
 369 -2.6300835e-01 3.05e-10 4.19e-11  -9.0 9.19e-06    -  1.00e+00 1.00e+00h  1

Number of Iterations....: 369

                                   (scaled)                 (unscaled)
Objective...............:  -2.6300834520365279e-01   -2.6300834520365279e-01
Dual infeasibility......:   4.1918218895986570e-11    4.1918218895986570e-11
Constraint violation....:   3.0547967519271857e-10    3.0547967519271857e-10
Complementarity.........:   9.0909091637904548e-10    9.0909091637904548e-10
Overall NLP error.......:   9.0909091637904548e-10    9.0909091637904548e-10


Number of objective function evaluations             = 703
Number of objective gradient evaluations             = 367
Number of equality constraint evaluations            = 703
Number of inequality constraint evaluations          = 704
Number of equality constraint Jacobian evaluations   = 372
Number of inequality constraint Jacobian evaluations = 372
Number of Lagrangian Hessian evaluations             = 369
Total CPU secs in IPOPT (w/o function evaluations)   =    993.945
Total CPU secs in NLP function evaluations           =     14.499

EXIT: Optimal Solution Found.
